25240,
23697,
23022,
22867,
21492,
20806,
20806,
19876,
19602,
19380,
18877,
18169,
17785,
17785,
17466,
17466,
17307,
17271,
17271,
17271,
17222,
17068,
17068,
16984,
16957,
16872,
16872,
16841,
16841,
16841,
16841,
16841,
16841,
16841,
16841,
16841,
16841,
16841,
16841,
16841,
16841,
16841,
16841,
16841,
16841,
16841,
16841,
16841,
16841,
16841,
16452,
16452,
16452,
16452,
16267,
16267,
16267,
16176,
16176,
16176,
16176,
16176,
16176,
16176,
16176,
16092,
16092,
16092,
16092,
16092,
16092,
16092,
16092,
16092,
16092,
16092,
16092,
16078,
16036,
16024,
15996,
15996,
15996,
15996,
15996,
15996,
15996,
15840,
15840,
15840,
15840,
15612,
15612,
15612,
15612,
15544,
15544,
15544,
15542,
15507,
15505,
15505,
15505,
15505,
15505,
15395,
15395,
15395,
15395,
15395,
15318,
15318,
15318,
15318,
15318,
15318,
15318,
15318,
15318,
15273,
15273,
15273,
15230,
15230,
15230,
15221,
15221,
15221,
15221,
15221,
15221,
15221,
14798,
14798,
14798,
14798,
14798,
14798,
14798,
14798,
14695,
14695,
14695,
14695,
14695,
14695,
14695,
14476,
14476,
14476,
14476,
14476,
14476,
14476,
14476,
14476,
14476,
14476,
14422,
14422,
14415,
14415,
14415,
14415,
14235,
14235,
14235,
14235,
14235,
14235,
14235,
14235,
14235,
14235,
14235,
14203,
14203,
14203,
14203,
14203,
14203,
14203,
14203,
14203,
14203,
14203,
14203,
14203,
14203,
14203,
14203,
14203,
14203,
14203,
14203,
14203,
14203,
14203,
14191,
14191,
14191,
14191,
14191,
14191,
14191,
14191,
14191,
14191,
14191,
14191,
14191,
14191,
14191,
14191,
14191,
14191,
14191,
14191,
14191,
14191,
14191,
14191,
14191,
14191,
14191,
14191,
14191,
14191,
14191,
14191,
14191,
14191,
14191,
14191,
14191,
14191,
14191,
14191,
14191,
14191,
14191,
14191,
14191,
14191,
14191,
14191,
14191,
14191,
14191,
14191,
14191,
14191,
14191,
14191,
14191,
14191,
14191,
14134,
14134,
14134,
14134,
14134,
14134,
14134,
14134,
14134,
14134,
14134,
14134,
14134,
14134,
14134,
14134,
14134,
14134,
14134,
14134,
14134,
14134,
14134,
14087,
14087,
14087,
13980,
13980,
13933,
13933,
13933,
13933,
13933,
13933,
13933,
13933,
13933,
13670,
13670,
13670,
13670,
13670,
13670,
13670,
13670,
13492,
13492,
13492,
13492,
13492,
13492,
13492,
13492,
13492,
13492,
13492,
13492,
13492,
13492,
13492,
13492,
13492,
13492,
13492,
13492,
13492,
13492,
13492,
13492,
13492,
13492,
13492,
13492,
13492,
13492,
13444,
13444,
13444,
13444,
13444,
13444,
13444,
13444,
13444,
13444,
13444,
13444,
13444,
13444,
13444,
13444,
13444,
13444,
13444,
13444,
13444,
13444,
13444,
13444,
13444,
13444,
13444,
13444,
13444,
13444,
13444,
13444,
13241,
13241,
13241,
13241,
13241,
13241,
13241,
13241,
13241,
13241,
13241,
13241,
13241,
13241,
13241,
13241,
13241,
13241,
13241,
13241,
13241,
13241,
13241,
13241,
13241,
13241,
13241,
13241,
13241,
13241,
13187,
13187,
13187,
13177,
13177,
13177,
13177,
13177,
13177,
13177,
13177,
13177,
13177,
13177,
13177,
13177,
13177,
13177,
13177,
13177,
13177,
13177,
13177,
13177,
13177,
13125,
13125,
13125,
13125,
13125,
13125,
13125,
13125,
13125,
13125,
13125,
13125,
13125,
13125,
13125,
13125,
13125,
13125,
13125,
13125,
13125,
13125,
13125,
13125,
13125,
13125,
13125,
13125,
13125,
13125,
13125,
13125,
13125,
13125,
13125,
13120,
13120,
13120,
13120,
13120,
13120,
13120,
13120,
13120,
13120,
13120,
13120,
13120,
13120,
13120,
13120,
13120,
13120,
13120,
13120,
13120,
13120,
13120,
13120,
13120,
13120,
13120,
13120,
13084,
13084,
13084,
13084,
13084,
13084,
13084,
13084,
13084,
13084,
13084,
13084,
13084,
13084,
13084,
13084,
13084,
13084,
13052,
13052,
13052,
13052,
13052,
13052,
13052,
13052,
13052,
13052,
13052,
13052,
13052,
13052,
13052,
13052,
13052,
13052,
13052,
13052,
13052,
13052,
13052,
13052,
13052,
13052,
12815,
12815,
12815,
12815,
12815,
12815,
12815,
12815,
12815,
12815,
12815,
12815,
12815,
12815,
12815,
12815,
12815,
12815,
12815,
12815,
12815,
12815,
12815,
12815,
12815,
12815,
12815,
12815,
12815,
12815,
12815,
12815,
12815,
12815,
12815,
12815,
12815,
12815,
12815,
12815,
12815,
12815,
12815,
12815,
12815,
12815,
12815,
12815,
12815,
12815,
12815,
12815,
12815,
12815,
12815,
12815,
12815,
12815,
12815,
12815,
12815,
12815,
12815,
12815,
12815,
12815,
12815,
12815,
12815,
12815,
12786,
12786,
12786,
12786,
12786,
12786,
12786,
12786,
12786,
12786,
12786,
12786,
12786,
12786,
12786,
12786,
12786,
12786,
12786,
12781,
12781,
12781,
12781,
12781,
12781,
12781,
12781,
12781,
12781,
12737,
12737,
12737,
12737,
12737,
12737,
12737,
12737,
12737,
12737,
12737,
12737,
12737,
12737,
12737,
12737,
12737,
12737,
12737,
12737,
12737,
12737,
12737,
12737,
12737,
12737,
12737,
12737,
12737,
12737,
12733,
12733,
12733,
12733,
12733,
12733,
12733,
12733,
12733,
12733,
12733,
12733,
12733,
12733,
12733,
12733,
12733,
12733,
12733,
12733,
12733,
12733,
12733,
12733,
12733,
12733,
12733,
12733,
12733,
12733,
12733,
12733,
12733,
12733,
12733,
12733,
12733,
12733,
12733,
12733,
12733,
12733,
12733,
12733,
12733,
12733,
12733,
12733,
12733,
12733,
12733,
12733,
12733,
12733,
12733,
12733,
12733,
12733,
12733,
12733,
12733,
12733,
12733,
12733,
12733,
12733,
12733,
12733,
12733,
12733,
12733,
12733,
12707,
12707,
12707,
12707,
12707,
12707,
12707,
12707,
12707,
12707,
12707,
12707,
12707,
12707,
12707,
12707,
12707,
12707,
12707,
12707,
12707,
12707,
12707,
12707,
12707,
12707,
12707,
12700,
12700,
12700,
12700,
12700,
12700,
12700,
12700,
12700,
12700,
12700,
12700,
12700,
12700,
12700,
12700,
12700,
12700,
12700,
12700,
12700,
12700,
12700,
12700,
12700,
12700,
12700,
12700,
12700,
12700,
12700,
12700,
12700,
12700,
12700,
12700,
12700,
12700,
12700,
12700,
12700,
12700,
12700,
12700,
12700,
12700,
12700,
12700,
12700,
12700,
12700,
12700,
12700,
12700,
12700,
12700,
12700,
12700,
12700,
12700,
12700,
12700,
12700,
12700,
12700,
12700,
12700,
12700,
12700,
12700,
12700,
12700,
12700,
12700,
12700,
12700,
12700,
12700,
12700,
12700,
12700,
12700,
12700,
12700,
12700,
12700,
12700,
12700,
12700,
12700,
12700,
12700,
12700,
12700,
12700,
12700,
12700,
12700,
12700,
12700,
12700,
12700,
12700,
12700,
12700,
12700,
12700,
12700,
12700,
12700,
12700,
12700,
12700,
12700,
12700,
12700,
12700,
12700,
12700,
12700,
12700,
12700,
12700,
12700,
12700,
12700,
12700,
12700,
12700,
12700,
12700,
12700,
12700,
12700,
12700,
12700,
12700,
12654,
12654,
12654,
12654,
12654,
12654,
12654,
12654,
12654,
12654,
12654,
12654,
12654,
12654,
12654,
12654,
12654,
12654,
12654,
12654,
12654,
12654,
12654,
12654,
12654,
12654,
12654,
12654,
12654,
12654,
12625,
12625,
12625,
12625,
12625,
12606,
12606,
12606,
12606,
12606,
12606,
12606,
12606,
12606,
12606,
12606,
12606,
12606,
12606,
12606,
12606,
12606,
12606,
12606,
12606,
12606,
12606,
12606,
12606,
12606,
12606,
12606,
12606,
12606,
12606,
12606,
12606,
12606,
12606,
12606,
12606,
12606,
12606,
12606,
12606,
12606,
12606,
12606,
12606,
12606,
12606,
12606,
12606,
12606,
12606,
12606,
12606,
12606,
12606,
12606,
12606,
12606,
12606,
12606,
12606,
12606,
12606,
12606,
12606,
12606,
12606,
12606,
12606,
12606,
12606,
12606,
12597,
12597,
12597,
12597,
12597,
12597,
12597,
12597,
12597,
12597,
12597,
12597,
12597,
12597,
12597,
12597,
12597,
12597,
12597,
12417,
12417,
12417,
12417,
12417,
12417,
12417,
12417,
12417,
12417,
12417,
12417,
12417,
12417,
12417,
12417,
12417,
12417,
12417,
12417,
12417,
12417,
12417,
12417,
12417,
12417,
12417,
12417,
12417,
12417,
12417,
12417,
12417,
12417,
12417,
12417,
12417,
12417,
12417,
12417,
12417,
12417,
12417,
12417,
12417,
12417,
12417,
12417,
12417,
12417,
12417,
12417,
12417,
12417,
12417,
12417,
12417,
12417,
12417,
12417,
12417,
12417,
12417,
12417,
12417,
12417,
12359,
12359,
12359,
12359,
12359,
12359,
12359,
12359,
12359,
12359,
12359,
12359,
12359,
12359,
12359,
12359,
12359,
12359,
12359,
12359,
12359,
12358,
12358,
12358,
12358,
12358,
12358,
12358,
12358,
12358,
12358,
12358,
12358,
12358,
12358,
12358,
12358,
12358,
12358,
12358,
12358,
12358,
12358,
12358,
12358,
12358,
12358,
12358,
12358,
12358,
12358,
12358,
12358,
12299,
12299,
12299,
12299,
12299,
12299,
12299,
12299,
12299,
12299,
12299,
12299,
12299,
12299,
12299,
12299,
12299,
12299,
12299,
12299,
12299,
12299,
12299,
12299,
12299,
12299,
12299,
12299,
12299,
12299,
12299,
12299,
12299,
12299,
12299,
12299,
12299,
12299,
12299,
12299,
12299,
12299,
12299,
12299,
12299,
12299,
12299,
12299,
12299,
12299,
12299,
12299,
12299,
12299,
12299,
12299,
12299,
12299,
12299,
12299,
12299,
12299,
12299,
12299,
12299,
12299,
12299,
12299,
12299,
12299,
12299,
12299,
12299,
12299,
12299,
12299,
12299,
12299,
12299,
12299,
12299,
12266,
12266,
12266,
12266,
12266,
12266,
12266,
12266,
12266,
12266,
12266,
12266,
12266,
12266,
12266,
12266,
12266,
12266,
12266,
12266,
12266,
12266,
12266,
12266,
12266,
12266,
12266,
12266,
12266,
12266,
12266,
12266,
12266,
12266,
12266,
12266,
12266,
12266,
12266,
12266,
12266,
12266,
12266,
12266,
12266,
12266,
12266,
12266,
12266,
12266,
12266,
12266,
12266,
12266,
12266,
12266,
12266,
12266,
12266,
12266,
12266,
12266,
12266,
12266,
12266,
12266,
12266,
12266,
12266,
12266,
12266,
12266,
12266,
12266,
12266,
12266,
12266,
12266,
12266,
12266,
12266,
12266,
12266,
12266,
12266,
12266,
12266,
12266,
12266,
12266,
12266,
12266,
12266,
12266,
12266,
12266,
12266,
12266,
12266,
12266,
12266,
12266,
12266,
12266,
12266,
12266,
12261,
12261,
12261,
12261,
12261,
12229,
12229,
12229,
12229,
12229,
12229,
12229,
12229,
12229,
12229,
12229,
12229,
12229,
12229,
12229,
12229,
12229,
12229,
12229,
12229,
12229,
12229,
12229,
12229,
12229,
12229,
12229,
12229,
12229,
12229,
12229,
12229,
12229,
12229,
12229,
12229,
12229,
12229,
12203,
12203,
12203,
12203,
12203,
12203,
12203,
12203,
12203,
12203,
12203,
12203,
12203,
12203,
12203,
12203,
12203,
12203,
12203,
12203,
12203,
12203,
12203,
12203,
12203,
12203,
12203,
12203,
12203,
12203,
12203,
12203,
12203,
12203,
12203,
12203,
12203,
12203,
12203,
12203,
12203,
12203,
12203,
12203,
12203,
12203,
12203,
12203,
12203,
12203,
12203,
12203,
12203,
12203,
12203,
12203,
12203,
12203,
12203,
12203,
12203,
12203,
12203,
12203,
12203,
12203,
12203,
12203,
12203,
12203,
12203,
12203,
12203,
12203,
12203,
12203,
12203,
12203,
12203,
12203,
12203,
12203,
12203,
12203,
12203,
12203,
12203,
12203,
12203,
12203,
12203,
12203,
12203,
12203,
12203,
12203,
12203,
12203,
12203,
12203,
12203,
12203,
12203,
12203,
12203,
12203,
12203,
12203,
12203,
12203,
12203,
12203,
12203,
12203,
12203,
12203,
12203,
12203,
12203,
12203,
12203,
12203,
12203,
12203,
12203,
12203,
12203,
12203,
12203,
12203,
12203,
12203,
12203,
12203,
12203,
12203,
1,
